; benchmark generated from python API
(set-info :status unknown)
(declare-fun cell_1_3 () Int)
(declare-fun cell_2_4 () Int)
(declare-fun cell_3_8 () Int)
(declare-fun cell_4_1 () Int)
(declare-fun cell_5_9 () Int)
(declare-fun cell_6_6 () Int)
(declare-fun cell_7_2 () Int)
(declare-fun cell_8_5 () Int)
(declare-fun cell_1_1 () Int)
(declare-fun cell_2_1 () Int)
(declare-fun cell_3_1 () Int)
(declare-fun cell_5_1 () Int)
(declare-fun cell_6_1 () Int)
(declare-fun cell_7_1 () Int)
(declare-fun cell_8_1 () Int)
(declare-fun cell_9_1 () Int)
(declare-fun cell_1_2 () Int)
(declare-fun cell_2_2 () Int)
(declare-fun cell_3_2 () Int)
(declare-fun cell_4_2 () Int)
(declare-fun cell_5_2 () Int)
(declare-fun cell_6_2 () Int)
(declare-fun cell_8_2 () Int)
(declare-fun cell_9_2 () Int)
(declare-fun cell_2_3 () Int)
(declare-fun cell_3_3 () Int)
(declare-fun cell_4_3 () Int)
(declare-fun cell_5_3 () Int)
(declare-fun cell_6_3 () Int)
(declare-fun cell_7_3 () Int)
(declare-fun cell_8_3 () Int)
(declare-fun cell_9_3 () Int)
(declare-fun cell_1_4 () Int)
(declare-fun cell_3_4 () Int)
(declare-fun cell_4_4 () Int)
(declare-fun cell_5_4 () Int)
(declare-fun cell_6_4 () Int)
(declare-fun cell_7_4 () Int)
(declare-fun cell_8_4 () Int)
(declare-fun cell_9_4 () Int)
(declare-fun cell_1_5 () Int)
(declare-fun cell_2_5 () Int)
(declare-fun cell_3_5 () Int)
(declare-fun cell_4_5 () Int)
(declare-fun cell_5_5 () Int)
(declare-fun cell_6_5 () Int)
(declare-fun cell_7_5 () Int)
(declare-fun cell_9_5 () Int)
(declare-fun cell_1_6 () Int)
(declare-fun cell_2_6 () Int)
(declare-fun cell_3_6 () Int)
(declare-fun cell_4_6 () Int)
(declare-fun cell_5_6 () Int)
(declare-fun cell_7_6 () Int)
(declare-fun cell_8_6 () Int)
(declare-fun cell_9_6 () Int)
(declare-fun cell_1_7 () Int)
(declare-fun cell_2_7 () Int)
(declare-fun cell_3_7 () Int)
(declare-fun cell_4_7 () Int)
(declare-fun cell_5_7 () Int)
(declare-fun cell_6_7 () Int)
(declare-fun cell_7_7 () Int)
(declare-fun cell_8_7 () Int)
(declare-fun cell_9_7 () Int)
(declare-fun cell_1_8 () Int)
(declare-fun cell_2_8 () Int)
(declare-fun cell_4_8 () Int)
(declare-fun cell_5_8 () Int)
(declare-fun cell_6_8 () Int)
(declare-fun cell_7_8 () Int)
(declare-fun cell_8_8 () Int)
(declare-fun cell_9_8 () Int)
(declare-fun cell_1_9 () Int)
(declare-fun cell_2_9 () Int)
(declare-fun cell_3_9 () Int)
(declare-fun cell_4_9 () Int)
(declare-fun cell_6_9 () Int)
(declare-fun cell_7_9 () Int)
(declare-fun cell_8_9 () Int)
(declare-fun cell_9_9 () Int)
(assert
 (= cell_1_3 1))
(assert
 (= cell_2_4 1))
(assert
 (= cell_3_8 1))
(assert
 (= cell_4_1 1))
(assert
 (= cell_5_9 1))
(assert
 (= cell_6_6 1))
(assert
 (= cell_7_2 1))
(assert
 (= cell_8_5 1))
(assert
 (let (($x7231 (= cell_1_1 9)))
 (let (($x4847 (= cell_1_1 8)))
 (let (($x6261 (= cell_1_1 7)))
 (let (($x2006 (= cell_1_1 6)))
 (let (($x3214 (= cell_1_1 5)))
 (let (($x975 (= cell_1_1 4)))
 (let (($x9587 (= cell_1_1 3)))
 (let (($x2505 (= cell_1_1 2)))
 (let (($x8932 (= cell_1_1 1)))
 (or $x8932 $x2505 $x9587 $x975 $x3214 $x2006 $x6261 $x4847 $x7231)))))))))))
(assert
 (let (($x2945 (= cell_2_1 9)))
 (let (($x296 (= cell_2_1 8)))
 (let (($x3444 (= cell_2_1 7)))
 (let (($x3218 (= cell_2_1 6)))
 (let (($x6843 (= cell_2_1 5)))
 (let (($x10183 (= cell_2_1 4)))
 (let (($x2159 (= cell_2_1 3)))
 (let (($x6249 (= cell_2_1 2)))
 (let (($x7736 (= cell_2_1 1)))
 (or $x7736 $x6249 $x2159 $x10183 $x6843 $x3218 $x3444 $x296 $x2945)))))))))))
(assert
 (let (($x6884 (= cell_3_1 9)))
 (let (($x7993 (= cell_3_1 8)))
 (let (($x306 (= cell_3_1 7)))
 (let (($x1720 (= cell_3_1 6)))
 (let (($x3282 (= cell_3_1 5)))
 (let (($x24 (= cell_3_1 4)))
 (let (($x10135 (= cell_3_1 3)))
 (let (($x1460 (= cell_3_1 2)))
 (let (($x1516 (= cell_3_1 1)))
 (or $x1516 $x1460 $x10135 $x24 $x3282 $x1720 $x306 $x7993 $x6884)))))))))))
(assert
 (let (($x4485 (= cell_4_1 1)))
 (or $x4485 (= cell_4_1 2) (= cell_4_1 3) (= cell_4_1 4) (= cell_4_1 5) (= cell_4_1 6) (= cell_4_1 7) (= cell_4_1 8) (= cell_4_1 9))))
(assert
 (let (($x6547 (= cell_5_1 9)))
 (let (($x5679 (= cell_5_1 8)))
 (let (($x7452 (= cell_5_1 7)))
 (let (($x5413 (= cell_5_1 6)))
 (let (($x10293 (= cell_5_1 5)))
 (let (($x4046 (= cell_5_1 4)))
 (let (($x3841 (= cell_5_1 3)))
 (let (($x6822 (= cell_5_1 2)))
 (let (($x5778 (= cell_5_1 1)))
 (or $x5778 $x6822 $x3841 $x4046 $x10293 $x5413 $x7452 $x5679 $x6547)))))))))))
(assert
 (let (($x4614 (= cell_6_1 9)))
 (let (($x1531 (= cell_6_1 8)))
 (let (($x5200 (= cell_6_1 7)))
 (let (($x5716 (= cell_6_1 6)))
 (let (($x1631 (= cell_6_1 5)))
 (let (($x2569 (= cell_6_1 4)))
 (let (($x432 (= cell_6_1 3)))
 (let (($x7721 (= cell_6_1 2)))
 (let (($x1581 (= cell_6_1 1)))
 (or $x1581 $x7721 $x432 $x2569 $x1631 $x5716 $x5200 $x1531 $x4614)))))))))))
(assert
 (let (($x6790 (= cell_7_1 9)))
 (let (($x9856 (= cell_7_1 8)))
 (let (($x1540 (= cell_7_1 7)))
 (let (($x10240 (= cell_7_1 6)))
 (let (($x687 (= cell_7_1 5)))
 (let (($x7759 (= cell_7_1 4)))
 (let (($x1591 (= cell_7_1 3)))
 (let (($x3893 (= cell_7_1 2)))
 (let (($x1335 (= cell_7_1 1)))
 (or $x1335 $x3893 $x1591 $x7759 $x687 $x10240 $x1540 $x9856 $x6790)))))))))))
(assert
 (let (($x1727 (= cell_8_1 9)))
 (let (($x8274 (= cell_8_1 8)))
 (let (($x1891 (= cell_8_1 7)))
 (let (($x2125 (= cell_8_1 6)))
 (let (($x6759 (= cell_8_1 5)))
 (let (($x7119 (= cell_8_1 4)))
 (let (($x7851 (= cell_8_1 3)))
 (let (($x942 (= cell_8_1 2)))
 (let (($x3654 (= cell_8_1 1)))
 (or $x3654 $x942 $x7851 $x7119 $x6759 $x2125 $x1891 $x8274 $x1727)))))))))))
(assert
 (let (($x8812 (= cell_9_1 1)))
 (or $x8812 (= cell_9_1 2) (= cell_9_1 3) (= cell_9_1 4) (= cell_9_1 5) (= cell_9_1 6) (= cell_9_1 7) (= cell_9_1 8) (= cell_9_1 9))))
(assert
 (let (($x10030 (= cell_1_2 9)))
 (let (($x1570 (= cell_1_2 8)))
 (let (($x2692 (= cell_1_2 7)))
 (let (($x5208 (= cell_1_2 6)))
 (let (($x1103 (= cell_1_2 5)))
 (let (($x1617 (= cell_1_2 4)))
 (let (($x3448 (= cell_1_2 3)))
 (let (($x3973 (= cell_1_2 2)))
 (let (($x7584 (= cell_1_2 1)))
 (or $x7584 $x3973 $x3448 $x1617 $x1103 $x5208 $x2692 $x1570 $x10030)))))))))))
(assert
 (let (($x9664 (= cell_2_2 9)))
 (let (($x1102 (= cell_2_2 8)))
 (let (($x6064 (= cell_2_2 7)))
 (let (($x4618 (= cell_2_2 6)))
 (let (($x2085 (= cell_2_2 5)))
 (let (($x8661 (= cell_2_2 4)))
 (let (($x1028 (= cell_2_2 3)))
 (let (($x7373 (= cell_2_2 2)))
 (let (($x4752 (= cell_2_2 1)))
 (or $x4752 $x7373 $x1028 $x8661 $x2085 $x4618 $x6064 $x1102 $x9664)))))))))))
(assert
 (let (($x315 (= cell_3_2 9)))
 (let (($x7713 (= cell_3_2 8)))
 (let (($x1026 (= cell_3_2 7)))
 (let (($x5858 (= cell_3_2 6)))
 (let (($x9019 (= cell_3_2 5)))
 (let (($x4277 (= cell_3_2 4)))
 (let (($x5360 (= cell_3_2 3)))
 (let (($x7507 (= cell_3_2 2)))
 (let (($x3588 (= cell_3_2 1)))
 (or $x3588 $x7507 $x5360 $x4277 $x9019 $x5858 $x1026 $x7713 $x315)))))))))))
(assert
 (let (($x4809 (= cell_4_2 9)))
 (let (($x9222 (= cell_4_2 8)))
 (let (($x5232 (= cell_4_2 7)))
 (let (($x4259 (= cell_4_2 6)))
 (let (($x5902 (= cell_4_2 5)))
 (let (($x8078 (= cell_4_2 4)))
 (let (($x6609 (= cell_4_2 3)))
 (let (($x8304 (= cell_4_2 2)))
 (let (($x1442 (= cell_4_2 1)))
 (or $x1442 $x8304 $x6609 $x8078 $x5902 $x4259 $x5232 $x9222 $x4809)))))))))))
(assert
 (let (($x4909 (= cell_5_2 9)))
 (let (($x7449 (= cell_5_2 8)))
 (let (($x2351 (= cell_5_2 7)))
 (let (($x7925 (= cell_5_2 6)))
 (let (($x1902 (= cell_5_2 5)))
 (let (($x6091 (= cell_5_2 4)))
 (let (($x8662 (= cell_5_2 3)))
 (let (($x8127 (= cell_5_2 2)))
 (let (($x5665 (= cell_5_2 1)))
 (or $x5665 $x8127 $x8662 $x6091 $x1902 $x7925 $x2351 $x7449 $x4909)))))))))))
(assert
 (let (($x9036 (= cell_6_2 9)))
 (let (($x5440 (= cell_6_2 8)))
 (let (($x8633 (= cell_6_2 7)))
 (let (($x2870 (= cell_6_2 6)))
 (let (($x9873 (= cell_6_2 5)))
 (let (($x2473 (= cell_6_2 4)))
 (let (($x4484 (= cell_6_2 3)))
 (let (($x6751 (= cell_6_2 2)))
 (let (($x3464 (= cell_6_2 1)))
 (or $x3464 $x6751 $x4484 $x2473 $x9873 $x2870 $x8633 $x5440 $x9036)))))))))))
(assert
 (let (($x2341 (= cell_7_2 1)))
 (or $x2341 (= cell_7_2 2) (= cell_7_2 3) (= cell_7_2 4) (= cell_7_2 5) (= cell_7_2 6) (= cell_7_2 7) (= cell_7_2 8) (= cell_7_2 9))))
(assert
 (let (($x5402 (= cell_8_2 9)))
 (let (($x6155 (= cell_8_2 8)))
 (let (($x7163 (= cell_8_2 7)))
 (let (($x3265 (= cell_8_2 6)))
 (let (($x6469 (= cell_8_2 5)))
 (let (($x1976 (= cell_8_2 4)))
 (let (($x4550 (= cell_8_2 3)))
 (let (($x5973 (= cell_8_2 2)))
 (let (($x1921 (= cell_8_2 1)))
 (or $x1921 $x5973 $x4550 $x1976 $x6469 $x3265 $x7163 $x6155 $x5402)))))))))))
(assert
 (let (($x5774 (= cell_9_2 1)))
 (or $x5774 (= cell_9_2 2) (= cell_9_2 3) (= cell_9_2 4) (= cell_9_2 5) (= cell_9_2 6) (= cell_9_2 7) (= cell_9_2 8) (= cell_9_2 9))))
(assert
 (let (($x4251 (= cell_1_3 1)))
 (or $x4251 (= cell_1_3 2) (= cell_1_3 3) (= cell_1_3 4) (= cell_1_3 5) (= cell_1_3 6) (= cell_1_3 7) (= cell_1_3 8) (= cell_1_3 9))))
(assert
 (let (($x9585 (= cell_2_3 9)))
 (let (($x5004 (= cell_2_3 8)))
 (let (($x10020 (= cell_2_3 7)))
 (let (($x3231 (= cell_2_3 6)))
 (let (($x8246 (= cell_2_3 5)))
 (let (($x1214 (= cell_2_3 4)))
 (let (($x318 (= cell_2_3 3)))
 (let (($x6258 (= cell_2_3 2)))
 (let (($x8310 (= cell_2_3 1)))
 (or $x8310 $x6258 $x318 $x1214 $x8246 $x3231 $x10020 $x5004 $x9585)))))))))))
(assert
 (let (($x2735 (= cell_3_3 9)))
 (let (($x7900 (= cell_3_3 8)))
 (let (($x894 (= cell_3_3 7)))
 (let (($x1377 (= cell_3_3 6)))
 (let (($x9284 (= cell_3_3 5)))
 (let (($x4462 (= cell_3_3 4)))
 (let (($x1356 (= cell_3_3 3)))
 (let (($x5609 (= cell_3_3 2)))
 (let (($x5962 (= cell_3_3 1)))
 (or $x5962 $x5609 $x1356 $x4462 $x9284 $x1377 $x894 $x7900 $x2735)))))))))))
(assert
 (let (($x2665 (= cell_4_3 1)))
 (or $x2665 (= cell_4_3 2) (= cell_4_3 3) (= cell_4_3 4) (= cell_4_3 5) (= cell_4_3 6) (= cell_4_3 7) (= cell_4_3 8) (= cell_4_3 9))))
(assert
 (let (($x6627 (= cell_5_3 9)))
 (let (($x8450 (= cell_5_3 8)))
 (let (($x3198 (= cell_5_3 7)))
 (let (($x2561 (= cell_5_3 6)))
 (let (($x1533 (= cell_5_3 5)))
 (let (($x2682 (= cell_5_3 4)))
 (let (($x4252 (= cell_5_3 3)))
 (let (($x1145 (= cell_5_3 2)))
 (let (($x6496 (= cell_5_3 1)))
 (or $x6496 $x1145 $x4252 $x2682 $x1533 $x2561 $x3198 $x8450 $x6627)))))))))))
(assert
 (let (($x7377 (= cell_6_3 9)))
 (let (($x2928 (= cell_6_3 8)))
 (let (($x3510 (= cell_6_3 7)))
 (let (($x6874 (= cell_6_3 6)))
 (let (($x8702 (= cell_6_3 5)))
 (let (($x6072 (= cell_6_3 4)))
 (let (($x7330 (= cell_6_3 3)))
 (let (($x8737 (= cell_6_3 2)))
 (let (($x3600 (= cell_6_3 1)))
 (or $x3600 $x8737 $x7330 $x6072 $x8702 $x6874 $x3510 $x2928 $x7377)))))))))))
(assert
 (let (($x8159 (= cell_7_3 1)))
 (or $x8159 (= cell_7_3 2) (= cell_7_3 3) (= cell_7_3 4) (= cell_7_3 5) (= cell_7_3 6) (= cell_7_3 7) (= cell_7_3 8) (= cell_7_3 9))))
(assert
 (let (($x6766 (= cell_8_3 9)))
 (let (($x709 (= cell_8_3 8)))
 (let (($x4270 (= cell_8_3 7)))
 (let (($x4891 (= cell_8_3 6)))
 (let (($x3518 (= cell_8_3 5)))
 (let (($x3954 (= cell_8_3 4)))
 (let (($x1235 (= cell_8_3 3)))
 (let (($x1268 (= cell_8_3 2)))
 (let (($x8458 (= cell_8_3 1)))
 (or $x8458 $x1268 $x1235 $x3954 $x3518 $x4891 $x4270 $x709 $x6766)))))))))))
(assert
 (let (($x3811 (= cell_9_3 1)))
 (or $x3811 (= cell_9_3 2) (= cell_9_3 3) (= cell_9_3 4) (= cell_9_3 5) (= cell_9_3 6) (= cell_9_3 7) (= cell_9_3 8) (= cell_9_3 9))))
(assert
 (let (($x8191 (= cell_1_4 9)))
 (let (($x6321 (= cell_1_4 8)))
 (let (($x1345 (= cell_1_4 7)))
 (let (($x4870 (= cell_1_4 6)))
 (let (($x4831 (= cell_1_4 5)))
 (let (($x6672 (= cell_1_4 4)))
 (let (($x4382 (= cell_1_4 3)))
 (let (($x1340 (= cell_1_4 2)))
 (let (($x4918 (= cell_1_4 1)))
 (or $x4918 $x1340 $x4382 $x6672 $x4831 $x4870 $x1345 $x6321 $x8191)))))))))))
(assert
 (let (($x9503 (= cell_2_4 1)))
 (or $x9503 (= cell_2_4 2) (= cell_2_4 3) (= cell_2_4 4) (= cell_2_4 5) (= cell_2_4 6) (= cell_2_4 7) (= cell_2_4 8) (= cell_2_4 9))))
(assert
 (let (($x7738 (= cell_3_4 9)))
 (let (($x3232 (= cell_3_4 8)))
 (let (($x2083 (= cell_3_4 7)))
 (let (($x3721 (= cell_3_4 6)))
 (let (($x510 (= cell_3_4 5)))
 (let (($x4366 (= cell_3_4 4)))
 (let (($x2951 (= cell_3_4 3)))
 (let (($x9116 (= cell_3_4 2)))
 (let (($x1302 (= cell_3_4 1)))
 (or $x1302 $x9116 $x2951 $x4366 $x510 $x3721 $x2083 $x3232 $x7738)))))))))))
(assert
 (let (($x493 (= cell_4_4 9)))
 (let (($x3200 (= cell_4_4 8)))
 (let (($x3614 (= cell_4_4 7)))
 (let (($x7834 (= cell_4_4 6)))
 (let (($x5632 (= cell_4_4 5)))
 (let (($x3174 (= cell_4_4 4)))
 (let (($x576 (= cell_4_4 3)))
 (let (($x7292 (= cell_4_4 2)))
 (let (($x8815 (= cell_4_4 1)))
 (or $x8815 $x7292 $x576 $x3174 $x5632 $x7834 $x3614 $x3200 $x493)))))))))))
(assert
 (let (($x940 (= cell_5_4 9)))
 (let (($x8290 (= cell_5_4 8)))
 (let (($x9029 (= cell_5_4 7)))
 (let (($x4926 (= cell_5_4 6)))
 (let (($x5789 (= cell_5_4 5)))
 (let (($x7845 (= cell_5_4 4)))
 (let (($x7910 (= cell_5_4 3)))
 (let (($x10119 (= cell_5_4 2)))
 (let (($x7970 (= cell_5_4 1)))
 (or $x7970 $x10119 $x7910 $x7845 $x5789 $x4926 $x9029 $x8290 $x940)))))))))))
(assert
 (let (($x9294 (= cell_6_4 9)))
 (let (($x8844 (= cell_6_4 8)))
 (let (($x3075 (= cell_6_4 7)))
 (let (($x7889 (= cell_6_4 6)))
 (let (($x1969 (= cell_6_4 5)))
 (let (($x9902 (= cell_6_4 4)))
 (let (($x10319 (= cell_6_4 3)))
 (let (($x7415 (= cell_6_4 2)))
 (let (($x1682 (= cell_6_4 1)))
 (or $x1682 $x7415 $x10319 $x9902 $x1969 $x7889 $x3075 $x8844 $x9294)))))))))))
(assert
 (let (($x1966 (= cell_7_4 9)))
 (let (($x1838 (= cell_7_4 8)))
 (let (($x129 (= cell_7_4 7)))
 (let (($x8016 (= cell_7_4 6)))
 (let (($x2729 (= cell_7_4 5)))
 (let (($x3845 (= cell_7_4 4)))
 (let (($x7962 (= cell_7_4 3)))
 (let (($x4323 (= cell_7_4 2)))
 (let (($x9614 (= cell_7_4 1)))
 (or $x9614 $x4323 $x7962 $x3845 $x2729 $x8016 $x129 $x1838 $x1966)))))))))))
(assert
 (let (($x9225 (= cell_8_4 9)))
 (let (($x1466 (= cell_8_4 8)))
 (let (($x5839 (= cell_8_4 7)))
 (let (($x4606 (= cell_8_4 6)))
 (let (($x4895 (= cell_8_4 5)))
 (let (($x4253 (= cell_8_4 4)))
 (let (($x7073 (= cell_8_4 3)))
 (let (($x1501 (= cell_8_4 2)))
 (let (($x10221 (= cell_8_4 1)))
 (or $x10221 $x1501 $x7073 $x4253 $x4895 $x4606 $x5839 $x1466 $x9225)))))))))))
(assert
 (let (($x7005 (= cell_9_4 1)))
 (or $x7005 (= cell_9_4 2) (= cell_9_4 3) (= cell_9_4 4) (= cell_9_4 5) (= cell_9_4 6) (= cell_9_4 7) (= cell_9_4 8) (= cell_9_4 9))))
(assert
 (let (($x4398 (= cell_1_5 9)))
 (let (($x4679 (= cell_1_5 8)))
 (let (($x9531 (= cell_1_5 7)))
 (let (($x4622 (= cell_1_5 6)))
 (let (($x9937 (= cell_1_5 5)))
 (let (($x6368 (= cell_1_5 4)))
 (let (($x10051 (= cell_1_5 3)))
 (let (($x8161 (= cell_1_5 2)))
 (let (($x1950 (= cell_1_5 1)))
 (or $x1950 $x8161 $x10051 $x6368 $x9937 $x4622 $x9531 $x4679 $x4398)))))))))))
(assert
 (let (($x4996 (= cell_2_5 9)))
 (let (($x3293 (= cell_2_5 8)))
 (let (($x9845 (= cell_2_5 7)))
 (let (($x818 (= cell_2_5 6)))
 (let (($x9886 (= cell_2_5 5)))
 (let (($x2540 (= cell_2_5 4)))
 (let (($x2830 (= cell_2_5 3)))
 (let (($x6428 (= cell_2_5 2)))
 (let (($x8863 (= cell_2_5 1)))
 (or $x8863 $x6428 $x2830 $x2540 $x9886 $x818 $x9845 $x3293 $x4996)))))))))))
(assert
 (let (($x600 (= cell_3_5 9)))
 (let (($x7628 (= cell_3_5 8)))
 (let (($x4896 (= cell_3_5 7)))
 (let (($x2624 (= cell_3_5 6)))
 (let (($x5894 (= cell_3_5 5)))
 (let (($x2039 (= cell_3_5 4)))
 (let (($x2203 (= cell_3_5 3)))
 (let (($x3086 (= cell_3_5 2)))
 (let (($x6465 (= cell_3_5 1)))
 (or $x6465 $x3086 $x2203 $x2039 $x5894 $x2624 $x4896 $x7628 $x600)))))))))))
(assert
 (let (($x192 (= cell_4_5 9)))
 (let (($x3921 (= cell_4_5 8)))
 (let (($x923 (= cell_4_5 7)))
 (let (($x7281 (= cell_4_5 6)))
 (let (($x1507 (= cell_4_5 5)))
 (let (($x7755 (= cell_4_5 4)))
 (let (($x8799 (= cell_4_5 3)))
 (let (($x5323 (= cell_4_5 2)))
 (let (($x6961 (= cell_4_5 1)))
 (or $x6961 $x5323 $x8799 $x7755 $x1507 $x7281 $x923 $x3921 $x192)))))))))))
(assert
 (let (($x5299 (= cell_5_5 9)))
 (let (($x5780 (= cell_5_5 8)))
 (let (($x7258 (= cell_5_5 7)))
 (let (($x858 (= cell_5_5 6)))
 (let (($x6183 (= cell_5_5 5)))
 (let (($x2367 (= cell_5_5 4)))
 (let (($x3974 (= cell_5_5 3)))
 (let (($x5882 (= cell_5_5 2)))
 (let (($x8910 (= cell_5_5 1)))
 (or $x8910 $x5882 $x3974 $x2367 $x6183 $x858 $x7258 $x5780 $x5299)))))))))))
(assert
 (let (($x4411 (= cell_6_5 9)))
 (let (($x8412 (= cell_6_5 8)))
 (let (($x6062 (= cell_6_5 7)))
 (let (($x2719 (= cell_6_5 6)))
 (let (($x7859 (= cell_6_5 5)))
 (let (($x1485 (= cell_6_5 4)))
 (let (($x3345 (= cell_6_5 3)))
 (let (($x4114 (= cell_6_5 2)))
 (let (($x1762 (= cell_6_5 1)))
 (or $x1762 $x4114 $x3345 $x1485 $x7859 $x2719 $x6062 $x8412 $x4411)))))))))))
(assert
 (let (($x6817 (= cell_7_5 9)))
 (let (($x7213 (= cell_7_5 8)))
 (let (($x7605 (= cell_7_5 7)))
 (let (($x3789 (= cell_7_5 6)))
 (let (($x2451 (= cell_7_5 5)))
 (let (($x2219 (= cell_7_5 4)))
 (let (($x1883 (= cell_7_5 3)))
 (let (($x4081 (= cell_7_5 2)))
 (let (($x9686 (= cell_7_5 1)))
 (or $x9686 $x4081 $x1883 $x2219 $x2451 $x3789 $x7605 $x7213 $x6817)))))))))))
(assert
 (let (($x8503 (= cell_8_5 1)))
 (or $x8503 (= cell_8_5 2) (= cell_8_5 3) (= cell_8_5 4) (= cell_8_5 5) (= cell_8_5 6) (= cell_8_5 7) (= cell_8_5 8) (= cell_8_5 9))))
(assert
 (let (($x388 (= cell_9_5 1)))
 (or $x388 (= cell_9_5 2) (= cell_9_5 3) (= cell_9_5 4) (= cell_9_5 5) (= cell_9_5 6) (= cell_9_5 7) (= cell_9_5 8) (= cell_9_5 9))))
(assert
 (let (($x6148 (= cell_1_6 9)))
 (let (($x2683 (= cell_1_6 8)))
 (let (($x2309 (= cell_1_6 7)))
 (let (($x5612 (= cell_1_6 6)))
 (let (($x8623 (= cell_1_6 5)))
 (let (($x1259 (= cell_1_6 4)))
 (let (($x3823 (= cell_1_6 3)))
 (let (($x6772 (= cell_1_6 2)))
 (let (($x7874 (= cell_1_6 1)))
 (or $x7874 $x6772 $x3823 $x1259 $x8623 $x5612 $x2309 $x2683 $x6148)))))))))))
(assert
 (let (($x4508 (= cell_2_6 9)))
 (let (($x3684 (= cell_2_6 8)))
 (let (($x6835 (= cell_2_6 7)))
 (let (($x836 (= cell_2_6 6)))
 (let (($x5376 (= cell_2_6 5)))
 (let (($x9962 (= cell_2_6 4)))
 (let (($x6803 (= cell_2_6 3)))
 (let (($x5380 (= cell_2_6 2)))
 (let (($x1038 (= cell_2_6 1)))
 (or $x1038 $x5380 $x6803 $x9962 $x5376 $x836 $x6835 $x3684 $x4508)))))))))))
(assert
 (let (($x1063 (= cell_3_6 9)))
 (let (($x2044 (= cell_3_6 8)))
 (let (($x4197 (= cell_3_6 7)))
 (let (($x789 (= cell_3_6 6)))
 (let (($x9320 (= cell_3_6 5)))
 (let (($x3144 (= cell_3_6 4)))
 (let (($x9293 (= cell_3_6 3)))
 (let (($x6098 (= cell_3_6 2)))
 (let (($x4749 (= cell_3_6 1)))
 (or $x4749 $x6098 $x9293 $x3144 $x9320 $x789 $x4197 $x2044 $x1063)))))))))))
(assert
 (let (($x5836 (= cell_4_6 9)))
 (let (($x4742 (= cell_4_6 8)))
 (let (($x7875 (= cell_4_6 7)))
 (let (($x2520 (= cell_4_6 6)))
 (let (($x4638 (= cell_4_6 5)))
 (let (($x4682 (= cell_4_6 4)))
 (let (($x3085 (= cell_4_6 3)))
 (let (($x9271 (= cell_4_6 2)))
 (let (($x9719 (= cell_4_6 1)))
 (or $x9719 $x9271 $x3085 $x4682 $x4638 $x2520 $x7875 $x4742 $x5836)))))))))))
(assert
 (let (($x1046 (= cell_5_6 9)))
 (let (($x5746 (= cell_5_6 8)))
 (let (($x6905 (= cell_5_6 7)))
 (let (($x3835 (= cell_5_6 6)))
 (let (($x1734 (= cell_5_6 5)))
 (let (($x2212 (= cell_5_6 4)))
 (let (($x726 (= cell_5_6 3)))
 (let (($x7518 (= cell_5_6 2)))
 (let (($x100 (= cell_5_6 1)))
 (or $x100 $x7518 $x726 $x2212 $x1734 $x3835 $x6905 $x5746 $x1046)))))))))))
(assert
 (let (($x8763 (= cell_6_6 1)))
 (or $x8763 (= cell_6_6 2) (= cell_6_6 3) (= cell_6_6 4) (= cell_6_6 5) (= cell_6_6 6) (= cell_6_6 7) (= cell_6_6 8) (= cell_6_6 9))))
(assert
 (let (($x215 (= cell_7_6 9)))
 (let (($x4516 (= cell_7_6 8)))
 (let (($x4513 (= cell_7_6 7)))
 (let (($x5886 (= cell_7_6 6)))
 (let (($x509 (= cell_7_6 5)))
 (let (($x288 (= cell_7_6 4)))
 (let (($x1209 (= cell_7_6 3)))
 (let (($x2095 (= cell_7_6 2)))
 (let (($x9087 (= cell_7_6 1)))
 (or $x9087 $x2095 $x1209 $x288 $x509 $x5886 $x4513 $x4516 $x215)))))))))))
(assert
 (let (($x8000 (= cell_8_6 1)))
 (or $x8000 (= cell_8_6 2) (= cell_8_6 3) (= cell_8_6 4) (= cell_8_6 5) (= cell_8_6 6) (= cell_8_6 7) (= cell_8_6 8) (= cell_8_6 9))))
(assert
 (let (($x6490 (= cell_9_6 1)))
 (or $x6490 (= cell_9_6 2) (= cell_9_6 3) (= cell_9_6 4) (= cell_9_6 5) (= cell_9_6 6) (= cell_9_6 7) (= cell_9_6 8) (= cell_9_6 9))))
(assert
 (let (($x1158 (= cell_1_7 9)))
 (let (($x6864 (= cell_1_7 8)))
 (let (($x7820 (= cell_1_7 7)))
 (let (($x485 (= cell_1_7 6)))
 (let (($x6924 (= cell_1_7 5)))
 (let (($x8588 (= cell_1_7 4)))
 (let (($x2724 (= cell_1_7 3)))
 (let (($x6563 (= cell_1_7 2)))
 (let (($x5969 (= cell_1_7 1)))
 (or $x5969 $x6563 $x2724 $x8588 $x6924 $x485 $x7820 $x6864 $x1158)))))))))))
(assert
 (let (($x6233 (= cell_2_7 9)))
 (let (($x3327 (= cell_2_7 8)))
 (let (($x7391 (= cell_2_7 7)))
 (let (($x10184 (= cell_2_7 6)))
 (let (($x4074 (= cell_2_7 5)))
 (let (($x9134 (= cell_2_7 4)))
 (let (($x1328 (= cell_2_7 3)))
 (let (($x6947 (= cell_2_7 2)))
 (let (($x989 (= cell_2_7 1)))
 (or $x989 $x6947 $x1328 $x9134 $x4074 $x10184 $x7391 $x3327 $x6233)))))))))))
(assert
 (let (($x1462 (= cell_3_7 9)))
 (let (($x1254 (= cell_3_7 8)))
 (let (($x9000 (= cell_3_7 7)))
 (let (($x4109 (= cell_3_7 6)))
 (let (($x5016 (= cell_3_7 5)))
 (let (($x9764 (= cell_3_7 4)))
 (let (($x7913 (= cell_3_7 3)))
 (let (($x3694 (= cell_3_7 2)))
 (let (($x1198 (= cell_3_7 1)))
 (or $x1198 $x3694 $x7913 $x9764 $x5016 $x4109 $x9000 $x1254 $x1462)))))))))))
(assert
 (let (($x4666 (= cell_4_7 9)))
 (let (($x7182 (= cell_4_7 8)))
 (let (($x6257 (= cell_4_7 7)))
 (let (($x9446 (= cell_4_7 6)))
 (let (($x6190 (= cell_4_7 5)))
 (let (($x410 (= cell_4_7 4)))
 (let (($x4101 (= cell_4_7 3)))
 (let (($x7909 (= cell_4_7 2)))
 (let (($x4040 (= cell_4_7 1)))
 (or $x4040 $x7909 $x4101 $x410 $x6190 $x9446 $x6257 $x7182 $x4666)))))))))))
(assert
 (let (($x8524 (= cell_5_7 9)))
 (let (($x1568 (= cell_5_7 8)))
 (let (($x540 (= cell_5_7 7)))
 (let (($x9436 (= cell_5_7 6)))
 (let (($x6998 (= cell_5_7 5)))
 (let (($x9154 (= cell_5_7 4)))
 (let (($x3695 (= cell_5_7 3)))
 (let (($x2045 (= cell_5_7 2)))
 (let (($x1117 (= cell_5_7 1)))
 (or $x1117 $x2045 $x3695 $x9154 $x6998 $x9436 $x540 $x1568 $x8524)))))))))))
(assert
 (let (($x7390 (= cell_6_7 1)))
 (or $x7390 (= cell_6_7 2) (= cell_6_7 3) (= cell_6_7 4) (= cell_6_7 5) (= cell_6_7 6) (= cell_6_7 7) (= cell_6_7 8) (= cell_6_7 9))))
(assert
 (let (($x9832 (= cell_7_7 1)))
 (or $x9832 (= cell_7_7 2) (= cell_7_7 3) (= cell_7_7 4) (= cell_7_7 5) (= cell_7_7 6) (= cell_7_7 7) (= cell_7_7 8) (= cell_7_7 9))))
(assert
 (let (($x9190 (= cell_8_7 1)))
 (or $x9190 (= cell_8_7 2) (= cell_8_7 3) (= cell_8_7 4) (= cell_8_7 5) (= cell_8_7 6) (= cell_8_7 7) (= cell_8_7 8) (= cell_8_7 9))))
(assert
 (let (($x4699 (= cell_9_7 1)))
 (or $x4699 (= cell_9_7 2) (= cell_9_7 3) (= cell_9_7 4) (= cell_9_7 5) (= cell_9_7 6) (= cell_9_7 7) (= cell_9_7 8) (= cell_9_7 9))))
(assert
 (let (($x6799 (= cell_1_8 9)))
 (let (($x8092 (= cell_1_8 8)))
 (let (($x9248 (= cell_1_8 7)))
 (let (($x6001 (= cell_1_8 6)))
 (let (($x7886 (= cell_1_8 5)))
 (let (($x3989 (= cell_1_8 4)))
 (let (($x3671 (= cell_1_8 3)))
 (let (($x6400 (= cell_1_8 2)))
 (let (($x8050 (= cell_1_8 1)))
 (or $x8050 $x6400 $x3671 $x3989 $x7886 $x6001 $x9248 $x8092 $x6799)))))))))))
(assert
 (let (($x500 (= cell_2_8 9)))
 (let (($x6786 (= cell_2_8 8)))
 (let (($x2069 (= cell_2_8 7)))
 (let (($x8213 (= cell_2_8 6)))
 (let (($x3462 (= cell_2_8 5)))
 (let (($x3580 (= cell_2_8 4)))
 (let (($x1220 (= cell_2_8 3)))
 (let (($x7385 (= cell_2_8 2)))
 (let (($x95 (= cell_2_8 1)))
 (or $x95 $x7385 $x1220 $x3580 $x3462 $x8213 $x2069 $x6786 $x500)))))))))))
(assert
 (let (($x7555 (= cell_3_8 1)))
 (or $x7555 (= cell_3_8 2) (= cell_3_8 3) (= cell_3_8 4) (= cell_3_8 5) (= cell_3_8 6) (= cell_3_8 7) (= cell_3_8 8) (= cell_3_8 9))))
(assert
 (let (($x6097 (= cell_4_8 9)))
 (let (($x2772 (= cell_4_8 8)))
 (let (($x6819 (= cell_4_8 7)))
 (let (($x8174 (= cell_4_8 6)))
 (let (($x2990 (= cell_4_8 5)))
 (let (($x3570 (= cell_4_8 4)))
 (let (($x7010 (= cell_4_8 3)))
 (let (($x9182 (= cell_4_8 2)))
 (let (($x2057 (= cell_4_8 1)))
 (or $x2057 $x9182 $x7010 $x3570 $x2990 $x8174 $x6819 $x2772 $x6097)))))))))))
(assert
 (let (($x6757 (= cell_5_8 9)))
 (let (($x7763 (= cell_5_8 8)))
 (let (($x3376 (= cell_5_8 7)))
 (let (($x5863 (= cell_5_8 6)))
 (let (($x5039 (= cell_5_8 5)))
 (let (($x4386 (= cell_5_8 4)))
 (let (($x2823 (= cell_5_8 3)))
 (let (($x5676 (= cell_5_8 2)))
 (let (($x657 (= cell_5_8 1)))
 (or $x657 $x5676 $x2823 $x4386 $x5039 $x5863 $x3376 $x7763 $x6757)))))))))))
(assert
 (let (($x1277 (= cell_6_8 1)))
 (or $x1277 (= cell_6_8 2) (= cell_6_8 3) (= cell_6_8 4) (= cell_6_8 5) (= cell_6_8 6) (= cell_6_8 7) (= cell_6_8 8) (= cell_6_8 9))))
(assert
 (let (($x1726 (= cell_7_8 1)))
 (or $x1726 (= cell_7_8 2) (= cell_7_8 3) (= cell_7_8 4) (= cell_7_8 5) (= cell_7_8 6) (= cell_7_8 7) (= cell_7_8 8) (= cell_7_8 9))))
(assert
 (let (($x4915 (= cell_8_8 1)))
 (or $x4915 (= cell_8_8 2) (= cell_8_8 3) (= cell_8_8 4) (= cell_8_8 5) (= cell_8_8 6) (= cell_8_8 7) (= cell_8_8 8) (= cell_8_8 9))))
(assert
 (let (($x1397 (= cell_9_8 1)))
 (or $x1397 (= cell_9_8 2) (= cell_9_8 3) (= cell_9_8 4) (= cell_9_8 5) (= cell_9_8 6) (= cell_9_8 7) (= cell_9_8 8) (= cell_9_8 9))))
(assert
 (let (($x4014 (= cell_1_9 9)))
 (let (($x2086 (= cell_1_9 8)))
 (let (($x5900 (= cell_1_9 7)))
 (let (($x2475 (= cell_1_9 6)))
 (let (($x201 (= cell_1_9 5)))
 (let (($x9804 (= cell_1_9 4)))
 (let (($x4674 (= cell_1_9 3)))
 (let (($x6121 (= cell_1_9 2)))
 (let (($x4281 (= cell_1_9 1)))
 (or $x4281 $x6121 $x4674 $x9804 $x201 $x2475 $x5900 $x2086 $x4014)))))))))))
(assert
 (let (($x5226 (= cell_2_9 9)))
 (let (($x785 (= cell_2_9 8)))
 (let (($x68 (= cell_2_9 7)))
 (let (($x5845 (= cell_2_9 6)))
 (let (($x5428 (= cell_2_9 5)))
 (let (($x3860 (= cell_2_9 4)))
 (let (($x7318 (= cell_2_9 3)))
 (let (($x10062 (= cell_2_9 2)))
 (let (($x1502 (= cell_2_9 1)))
 (or $x1502 $x10062 $x7318 $x3860 $x5428 $x5845 $x68 $x785 $x5226)))))))))))
(assert
 (let (($x3948 (= cell_3_9 9)))
 (let (($x9300 (= cell_3_9 8)))
 (let (($x4992 (= cell_3_9 7)))
 (let (($x7108 (= cell_3_9 6)))
 (let (($x612 (= cell_3_9 5)))
 (let (($x10022 (= cell_3_9 4)))
 (let (($x5513 (= cell_3_9 3)))
 (let (($x9128 (= cell_3_9 2)))
 (let (($x1790 (= cell_3_9 1)))
 (or $x1790 $x9128 $x5513 $x10022 $x612 $x7108 $x4992 $x9300 $x3948)))))))))))
(assert
 (let (($x9069 (= cell_4_9 9)))
 (let (($x7027 (= cell_4_9 8)))
 (let (($x9513 (= cell_4_9 7)))
 (let (($x6929 (= cell_4_9 6)))
 (let (($x3731 (= cell_4_9 5)))
 (let (($x8719 (= cell_4_9 4)))
 (let (($x5423 (= cell_4_9 3)))
 (let (($x2699 (= cell_4_9 2)))
 (let (($x10029 (= cell_4_9 1)))
 (or $x10029 $x2699 $x5423 $x8719 $x3731 $x6929 $x9513 $x7027 $x9069)))))))))))
(assert
 (let (($x2238 (= cell_5_9 1)))
 (or $x2238 (= cell_5_9 2) (= cell_5_9 3) (= cell_5_9 4) (= cell_5_9 5) (= cell_5_9 6) (= cell_5_9 7) (= cell_5_9 8) (= cell_5_9 9))))
(assert
 (let (($x4004 (= cell_6_9 1)))
 (or $x4004 (= cell_6_9 2) (= cell_6_9 3) (= cell_6_9 4) (= cell_6_9 5) (= cell_6_9 6) (= cell_6_9 7) (= cell_6_9 8) (= cell_6_9 9))))
(assert
 (let (($x2890 (= cell_7_9 1)))
 (or $x2890 (= cell_7_9 2) (= cell_7_9 3) (= cell_7_9 4) (= cell_7_9 5) (= cell_7_9 6) (= cell_7_9 7) (= cell_7_9 8) (= cell_7_9 9))))
(assert
 (let (($x3243 (= cell_8_9 1)))
 (or $x3243 (= cell_8_9 2) (= cell_8_9 3) (= cell_8_9 4) (= cell_8_9 5) (= cell_8_9 6) (= cell_8_9 7) (= cell_8_9 8) (= cell_8_9 9))))
(assert
 (let (($x3151 (= cell_9_9 1)))
 (or $x3151 (= cell_9_9 2) (= cell_9_9 3) (= cell_9_9 4) (= cell_9_9 5) (= cell_9_9 6) (= cell_9_9 7) (= cell_9_9 8) (= cell_9_9 9))))
(assert
 (and (distinct cell_1_1 cell_1_2 cell_1_3 cell_1_4 cell_1_5 cell_1_6 cell_1_7 cell_1_8 cell_1_9) true))
(assert
 (and (distinct cell_2_1 cell_2_2 cell_2_3 cell_2_4 cell_2_5 cell_2_6 cell_2_7 cell_2_8 cell_2_9) true))
(assert
 (and (distinct cell_3_1 cell_3_2 cell_3_3 cell_3_4 cell_3_5 cell_3_6 cell_3_7 cell_3_8 cell_3_9) true))
(assert
 (and (distinct cell_4_1 cell_4_2 cell_4_3 cell_4_4 cell_4_5 cell_4_6 cell_4_7 cell_4_8 cell_4_9) true))
(assert
 (and (distinct cell_5_1 cell_5_2 cell_5_3 cell_5_4 cell_5_5 cell_5_6 cell_5_7 cell_5_8 cell_5_9) true))
(assert
 (and (distinct cell_6_1 cell_6_2 cell_6_3 cell_6_4 cell_6_5 cell_6_6 cell_6_7 cell_6_8 cell_6_9) true))
(assert
 (and (distinct cell_7_1 cell_7_2 cell_7_3 cell_7_4 cell_7_5 cell_7_6 cell_7_7 cell_7_8 cell_7_9) true))
(assert
 (and (distinct cell_8_1 cell_8_2 cell_8_3 cell_8_4 cell_8_5 cell_8_6 cell_8_7 cell_8_8 cell_8_9) true))
(assert
 (and (distinct cell_9_1 cell_9_2 cell_9_3 cell_9_4 cell_9_5 cell_9_6 cell_9_7 cell_9_8 cell_9_9) true))
(assert
 (and (distinct cell_1_1 cell_2_1 cell_3_1 cell_4_1 cell_5_1 cell_6_1 cell_7_1 cell_8_1 cell_9_1) true))
(assert
 (and (distinct cell_1_2 cell_2_2 cell_3_2 cell_4_2 cell_5_2 cell_6_2 cell_7_2 cell_8_2 cell_9_2) true))
(assert
 (and (distinct cell_1_3 cell_2_3 cell_3_3 cell_4_3 cell_5_3 cell_6_3 cell_7_3 cell_8_3 cell_9_3) true))
(assert
 (and (distinct cell_1_4 cell_2_4 cell_3_4 cell_4_4 cell_5_4 cell_6_4 cell_7_4 cell_8_4 cell_9_4) true))
(assert
 (and (distinct cell_1_5 cell_2_5 cell_3_5 cell_4_5 cell_5_5 cell_6_5 cell_7_5 cell_8_5 cell_9_5) true))
(assert
 (and (distinct cell_1_6 cell_2_6 cell_3_6 cell_4_6 cell_5_6 cell_6_6 cell_7_6 cell_8_6 cell_9_6) true))
(assert
 (and (distinct cell_1_7 cell_2_7 cell_3_7 cell_4_7 cell_5_7 cell_6_7 cell_7_7 cell_8_7 cell_9_7) true))
(assert
 (and (distinct cell_1_8 cell_2_8 cell_3_8 cell_4_8 cell_5_8 cell_6_8 cell_7_8 cell_8_8 cell_9_8) true))
(assert
 (and (distinct cell_1_9 cell_2_9 cell_3_9 cell_4_9 cell_5_9 cell_6_9 cell_7_9 cell_8_9 cell_9_9) true))
(assert
 (and (distinct cell_1_1 cell_1_2 cell_1_3 cell_2_1 cell_2_2 cell_2_3 cell_3_1 cell_3_2 cell_3_3) true))
(assert
 (and (distinct cell_1_4 cell_1_5 cell_1_6 cell_2_4 cell_2_5 cell_2_6 cell_3_4 cell_3_5 cell_3_6) true))
(assert
 (and (distinct cell_1_7 cell_1_8 cell_1_9 cell_2_7 cell_2_8 cell_2_9 cell_3_7 cell_3_8 cell_3_9) true))
(assert
 (and (distinct cell_4_1 cell_4_2 cell_4_3 cell_5_1 cell_5_2 cell_5_3 cell_6_1 cell_6_2 cell_6_3) true))
(assert
 (and (distinct cell_4_4 cell_4_5 cell_4_6 cell_5_4 cell_5_5 cell_5_6 cell_6_4 cell_6_5 cell_6_6) true))
(assert
 (and (distinct cell_4_7 cell_4_8 cell_4_9 cell_5_7 cell_5_8 cell_5_9 cell_6_7 cell_6_8 cell_6_9) true))
(assert
 (and (distinct cell_7_1 cell_7_2 cell_7_3 cell_8_1 cell_8_2 cell_8_3 cell_9_1 cell_9_2 cell_9_3) true))
(assert
 (and (distinct cell_7_4 cell_7_5 cell_7_6 cell_8_4 cell_8_5 cell_8_6 cell_9_4 cell_9_5 cell_9_6) true))
(assert
 (and (distinct cell_7_7 cell_7_8 cell_7_9 cell_8_7 cell_8_8 cell_8_9 cell_9_7 cell_9_8 cell_9_9) true))
(assert
 (let (($x5693 (and (distinct cell_5_9 cell_6_8 cell_7_7 cell_8_6) true)))
 (let (($x4375 (and (distinct cell_2_9 cell_3_8 cell_4_7 cell_5_6 cell_6_5 cell_7_4 cell_8_3 cell_9_2) true)))
 (let (($x438 (and (distinct cell_1_8 cell_2_7 cell_3_6 cell_4_5 cell_5_4 cell_6_3 cell_7_2 cell_8_1) true)))
 (let (($x6688 (and (distinct cell_1_5 cell_2_4 cell_3_3 cell_4_2) true)))
 (let (($x6825 (and (distinct cell_5_1 cell_6_2 cell_7_3 cell_8_4) true)))
 (let (($x9963 (and (distinct cell_2_1 cell_3_2 cell_4_3 cell_5_4 cell_6_5 cell_7_6 cell_8_7 cell_9_8) true)))
 (let (($x930 (and (distinct cell_1_2 cell_2_3 cell_3_4 cell_4_5 cell_5_6 cell_6_7 cell_7_8 cell_8_9) true)))
 (let (($x8442 (and (distinct cell_1_5 cell_2_6 cell_3_7 cell_4_8) true)))
 (and $x8442 $x930 $x9963 $x6825 $x6688 $x438 $x4375 $x5693))))))))))
(assert
 (= cell_9_7 1))
(check-sat)
